% seed = 0

mint = 46;
% maxt = 193;

nActs = 20;
dur = [0,11,16,14,10,10,7,7,19,9,10,8,16,8,5,8,15,12,8,0];

nSkills = 3;
sreq = [| 0,0,0,
	| 4,0,2,
	| 0,0,2,
	| 4,2,2,
	| 3,2,0,
	| 0,0,2,
	| 2,2,0,
	| 2,2,2,
	| 2,2,2,
	| 3,0,0,
	| 4,0,2,
	| 4,2,0,
	| 2,0,2,
	| 0,2,2,
	| 0,2,2,
	| 0,0,2,
	| 5,0,2,
	| 0,0,2,
	| 2,0,2,
	| 0,0,0, |];

% SumOfsreq = 81;

nResources = 11;
mastery = [| true,true,false,
	| true,false,false,
	| true,false,false,
	| true,false,false,
	| true,true,true,
	| false,true,false,
	| false,true,true,
	| false,false,true,
	| true,true,false,
	| false,false,true,
	| false,true,false, |];

nPrecs = 30;
pred = [1,1,1,1,1,1,1,1,1,2,3,4,5,6,6,7,8,8,8,9,10,11,12,13,14,15,16,17,18,19];
succ = [2,3,4,5,7,9,10,11,19,8,17,6,6,18,14,18,12,13,15,20,13,20,17,18,16,18,20,20,20,20];

nUnrels = 123;
unpred = [2,2,2,2,2,2,2,2,2,2,2,3,3,3,3,3,3,3,3,3,3,3,3,3,3,3,4,4,4,4,4,4,4,4,4,4,4,5,5,5,5,5,5,5,5,5,5,6,6,6,6,6,6,6,6,6,6,7,7,7,7,7,7,7,7,7,7,7,8,8,8,8,8,8,9,9,9,9,9,9,9,9,9,9,10,10,10,10,10,10,10,11,11,11,11,11,11,11,11,12,12,12,12,12,12,13,13,13,13,13,14,14,14,14,15,15,15,16,16,16,17,17,18];
unsucc = [3,4,5,6,7,9,10,11,14,16,19,4,5,6,7,8,9,10,11,12,13,14,15,16,18,19,5,7,8,9,10,11,12,13,15,17,19,7,8,9,10,11,12,13,15,17,19,7,8,9,10,11,12,13,15,17,19,8,9,10,11,12,13,14,15,16,17,19,9,10,11,14,16,19,10,11,12,13,14,15,16,17,18,19,11,12,14,15,16,17,19,12,13,14,15,16,17,18,19,13,14,15,16,18,19,14,15,16,17,19,15,17,18,19,16,17,19,17,18,19,18,19,19];

USEFUL_RES = [{},
	{1,2,3,4,5,7,8,9,10},
	{5,7,8,10},
	{1,2,3,4,5,6,7,8,9,10,11},
	{1,2,3,4,5,6,7,9,11},
	{5,7,8,10},
	{1,2,3,4,5,6,7,9,11},
	{1,2,3,4,5,6,7,8,9,10,11},
	{1,2,3,4,5,6,7,8,9,10,11},
	{1,2,3,4,5,9},
	{1,2,3,4,5,7,8,9,10},
	{1,2,3,4,5,6,7,9,11},
	{1,2,3,4,5,7,8,9,10},
	{1,5,6,7,8,9,10,11},
	{1,5,6,7,8,9,10,11},
	{5,7,8,10},
	{1,2,3,4,5,7,8,9,10},
	{5,7,8,10},
	{1,2,3,4,5,7,8,9,10},
	{}];

POTENTIAL_ACT = [{2,4,5,7,8,9,10,11,12,13,14,15,17,19},
	{2,4,5,7,8,9,10,11,12,13,17,19},
	{2,4,5,7,8,9,10,11,12,13,17,19},
	{2,4,5,7,8,9,10,11,12,13,17,19},
	{2,3,4,5,6,7,8,9,10,11,12,13,14,15,16,17,18,19},
	{4,5,7,8,9,12,14,15},
	{2,3,4,5,6,7,8,9,11,12,13,14,15,16,17,18,19},
	{2,3,4,6,8,9,11,13,14,15,16,17,18,19},
	{2,4,5,7,8,9,10,11,12,13,14,15,17,19},
	{2,3,4,6,8,9,11,13,14,15,16,17,18,19},
	{4,5,7,8,9,12,14,15}];
